NAME : amz1731.149731_149731.tour
COMMENT : Cost = 149731_149731
COMMENT : Found by LKH-AMZ [Keld Helsgaun] Sun May 11 13:25:49 2025
COMMENT : TW viol.: 0 #: 0
TYPE : TOUR
DIMENSION : 157
TOUR_SECTION
132
42
86
117
63
12
153
122
98
73
121
38
3
85
99
47
41
51
156
141
110
21
50
135
119
59
137
101
106
66
67
112
61
1
120
100
95
44
33
15
14
24
130
79
11
147
68
123
9
104
30
111
5
32
140
84
133
149
39
109
78
31
72
105
144
75
148
62
58
124
13
114
127
29
129
139
103
45
94
53
69
48
70
102
16
152
138
150
7
56
113
90
65
88
154
93
92
54
136
49
108
22
142
23
82
64
17
134
26
43
27
131
151
116
36
60
18
81
128
155
35
40
143
145
146
34
91
115
126
80
2
74
20
83
19
4
76
6
57
157
37
89
97
8
55
46
96
25
87
77
28
10
71
118
107
52
125
-1
EOF
